# Solution for model micodag
# Objective value = 8.3934141529976554e+00
s_0_1 0
s_1_0 0
s_0_2 0
s_2_0 0
s_0_4 0
s_4_0 2.4240731287575379e-01
s_1_2 0
s_2_1 3.7502136873689418e-01
s_1_3 0
s_3_1 1.9211498048502040e-01
s_2_4 0
s_4_2 4.5576311610898212e-01
s_4_5 0
s_5_4 2.9255660667125425e+00
s_0_0 6.0922119263601493e-01
s_1_1 6.5830157352971241e-01
s_2_2 0.621936752949181
s_3_3 6.3185417875156968e-01
s_4_4 2.9255660667125425e+00
s_5_5 1.0672461242841333e+00
Gamma_0_0 7.8052622802569249e-01
Gamma_0_1 0
Gamma_0_2 0
Gamma_0_3 0
Gamma_0_4 0
Gamma_0_5 0
Gamma_1_0 0
Gamma_1_1 8.1135785787142822e-01
Gamma_1_2 0
Gamma_1_3 0
Gamma_1_4 0
Gamma_1_5 0
Gamma_2_0 0
Gamma_2_1 6.1238988294786068e-01
Gamma_2_2 7.8862966780941046e-01
Gamma_2_3 0
Gamma_2_4 0
Gamma_2_5 0
Gamma_3_0 0
Gamma_3_1 4.3830922929482208e-01
Gamma_3_2 0
Gamma_3_3 7.9489255799231784e-01
Gamma_3_4 0
Gamma_3_5 0
Gamma_4_0 -4.9234877157941004e-01
Gamma_4_1 0
Gamma_4_2 -6.7510230047673692e-01
Gamma_4_3 0
Gamma_4_4 8.2012027369781837e-01
Gamma_4_5 0
Gamma_5_0 0
Gamma_5_1 0
Gamma_5_2 0
Gamma_5_3 0
Gamma_5_4 -8.2565389825066060e-01
Gamma_5_5 1.0330760496130638e+00
psi_0 2
psi_1 3
psi_2 2
psi_3 0
psi_4 1
psi_5 0
g_0_0 0
g_0_1 0
g_0_2 0
g_0_3 0
g_0_4 0
g_0_5 0
g_1_0 0
g_1_1 0
g_1_2 0
g_1_3 0
g_1_4 0
g_1_5 0
g_2_0 0
g_2_1 1
g_2_2 0
g_2_3 0
g_2_4 0
g_2_5 0
g_3_0 0
g_3_1 1
g_3_2 0
g_3_3 0
g_3_4 0
g_3_5 0
g_4_0 1
g_4_1 0
g_4_2 1
g_4_3 0
g_4_4 0
g_4_5 0
g_5_0 0
g_5_1 0
g_5_2 0
g_5_3 0
g_5_4 1
g_5_5 0
T_0 4.9557387091680027e-01
T_1 4.1809213421842628e-01
T_2 4.7491687477450739e-01
T_3 4.5909664128096495e-01
T_4 3.9660854847672056e-01
T_5 -6.5081615151697747e-02
